609,458
857,648
776,593
542,833
441,528
874,140
998,-30
893,194
909,480
826,511
858,434
734,433
613,539
681,556
804,575
921,528
977,452
1081,202
792,64
795,369
207,481
450,860
254,545
300,25
417,42
850,575
751,503
672,434
624,388
1028,229
966,314
1006,457
